n_res = 3;
rcap = [38, 113, 117];
rtype = [1, 2, 2];
n_tasks = 16;
modes = [ {1, 2, 3}, {4, 5, 6}, {7, 8, 9}, {10, 11, 12}, {13, 14, 15}, {16, 17, 18}, {19, 20, 21}, {22, 23, 24}, {25, 26, 27}, {28, 29, 30}, {31, 32, 33}, {34, 35, 36}, {37, 38, 39}, {40, 41, 42}, {43, 44, 45}, {46, 47, 48} ];
succ = [ {4, 5, 6}, {9, 10, 12}, {10, 11, 15}, {7, 10, 12}, {7, 12, 13}, {7, 8, 9}, {15}, {14, 16}, {11}, {13}, {13, 16}, {15}, {14}, {}, {}, {} ];
n_opt = 48;
dur = [1, 6, 9, 4, 5, 7, 2, 4, 6, 3, 5, 7, 1, 2, 5, 4, 5, 6, 4, 8, 9, 1, 4, 10, 1, 5, 8, 9, 9, 10, 2, 4, 5, 2, 2, 10, 3, 7, 10, 2, 8, 9, 9, 9, 10, 5, 6, 8];
rreq = [| 10,  9,  6, 10,  9,  7, 10,  9,  9,  6,  4,  4,  3,  3,  2,  9,  5,  4,  6,  5,  3,  3,  2,  2,  7,  7,  6,  9,  9,  9,  3,  2,  2,  7,  7,  4,  5,  5,  4,  8,  6,  5,  8,  9,  8,  7,  5,  1
        |  9,  8,  6,  3,  3,  2,  9,  7,  7,  6,  5,  1,  7,  7,  6,  5,  4,  3,  9,  6,  2,  6,  5,  5,  5,  4,  3, 10,  7,  3,  8,  8,  7,  8,  9,  7,  6,  6,  5,  9,  7,  5,  9,  8,  6,  3,  2,  2
        |  8,  8,  7,  5,  5,  2,  8,  8,  5, 10,  8,  7, 10,  9,  9,  7,  5,  3,  8,  4,  4,  9,  8,  7,  6,  5,  4,  6,  8,  6,  5,  4,  1,  9,  7,  7,  9,  6,  5,  3,  2,  2,  3,  4,  3,  8,  5,  5 |];
